p cnf 225 1
225 0
w 1 0.359948
w 2 1 0.640213
w 2 -1 0.970812
w 3 2 0
w 3 -2 1
w 4 3 1
w 4 -3 0
w 5 4 0
w 5 -4 1
w 6 5 0
w 6 -5 1
w 7 6 1
w 7 -6 0
w 8 7 0
w 8 -7 1
w 9 8 0
w 9 -8 1
w 10 9 1
w 10 -9 0
w 11 10 0.588763
w 11 -10 0.829767
w 12 11 0.23697
w 12 -11 0.835454
w 13 12 0
w 13 -12 1
w 14 13 1
w 14 -13 0
w 15 14 0.390187
w 15 -14 0.516481
w 16 1 0
w 16 -1 1
w 17 16 2 0.349822
w 17 16 -2 0.365646
w 17 -16 2 0.184216
w 17 -16 -2 0.484802
w 18 17 3 1
w 18 17 -3 1
w 18 -17 3 0
w 18 -17 -3 0
w 19 18 4 0
w 19 18 -4 0
w 19 -18 4 1
w 19 -18 -4 0
w 20 19 5 0
w 20 19 -5 1
w 20 -19 5 0
w 20 -19 -5 0
w 21 20 6 0.862274
w 21 20 -6 0.740906
w 21 -20 6 0.364333
w 21 -20 -6 0.892514
w 22 21 7 0.918039
w 22 21 -7 0.282701
w 22 -21 7 0.0286623
w 22 -21 -7 0.111958
w 23 22 8 0.986482
w 23 22 -8 0.46178
w 23 -22 8 0.00934605
w 23 -22 -8 0.170698
w 24 23 9 0.218927
w 24 23 -9 0.815212
w 24 -23 9 0.943846
w 24 -23 -9 0.900757
w 25 24 10 1
w 25 24 -10 0
w 25 -24 10 0
w 25 -24 -10 0
w 26 25 11 0
w 26 25 -11 1
w 26 -25 11 1
w 26 -25 -11 0
w 27 26 12 0.808578
w 27 26 -12 0.183342
w 27 -26 12 0.368337
w 27 -26 -12 0.172911
w 28 27 13 1
w 28 27 -13 1
w 28 -27 13 1
w 28 -27 -13 0
w 29 28 14 1
w 29 28 -14 0
w 29 -28 14 1
w 29 -28 -14 1
w 30 29 15 0.230531
w 30 29 -15 0.881574
w 30 -29 15 0.555117
w 30 -29 -15 0.131288
w 31 16 0
w 31 -16 1
w 32 31 17 0.243705
w 32 31 -17 0.134379
w 32 -31 17 0.173969
w 32 -31 -17 0.537953
w 33 32 18 0
w 33 32 -18 1
w 33 -32 18 1
w 33 -32 -18 1
w 34 33 19 0
w 34 33 -19 0
w 34 -33 19 0
w 34 -33 -19 1
w 35 34 20 0
w 35 34 -20 1
w 35 -34 20 1
w 35 -34 -20 1
w 36 35 21 1
w 36 35 -21 1
w 36 -35 21 1
w 36 -35 -21 0
w 37 36 22 0.314142
w 37 36 -22 0.852457
w 37 -36 22 0.934115
w 37 -36 -22 0.131105
w 38 37 23 0.17782
w 38 37 -23 0.265484
w 38 -37 23 0.704507
w 38 -37 -23 0.715773
w 39 38 24 1
w 39 38 -24 1
w 39 -38 24 1
w 39 -38 -24 0
w 40 39 25 0.3643
w 40 39 -25 0.117727
w 40 -39 25 0.735377
w 40 -39 -25 0.399125
w 41 40 26 0
w 41 40 -26 0
w 41 -40 26 1
w 41 -40 -26 0
w 42 41 27 1
w 42 41 -27 1
w 42 -41 27 0
w 42 -41 -27 1
w 43 42 28 0.10187
w 43 42 -28 0.755453
w 43 -42 28 0.810552
w 43 -42 -28 0.232975
w 44 43 29 0
w 44 43 -29 0
w 44 -43 29 0
w 44 -43 -29 1
w 45 44 30 0.278938
w 45 44 -30 0.132474
w 45 -44 30 0.831243
w 45 -44 -30 0.896095
w 46 31 0
w 46 -31 1
w 47 46 32 0.895899
w 47 46 -32 0.346854
w 47 -46 32 0.843627
w 47 -46 -32 0.239031
w 48 47 33 1
w 48 47 -33 1
w 48 -47 33 1
w 48 -47 -33 0
w 49 48 34 0.0442335
w 49 48 -34 0.619639
w 49 -48 34 0.387103
w 49 -48 -34 0.146103
w 50 49 35 1
w 50 49 -35 0
w 50 -49 35 0
w 50 -49 -35 1
w 51 50 36 0.651581
w 51 50 -36 0.89017
w 51 -50 36 0.800019
w 51 -50 -36 0.554304
w 52 51 37 0
w 52 51 -37 0
w 52 -51 37 1
w 52 -51 -37 0
w 53 52 38 0.325165
w 53 52 -38 0.681371
w 53 -52 38 0.540302
w 53 -52 -38 0.564196
w 54 53 39 0.0751178
w 54 53 -39 0.986029
w 54 -53 39 0.165679
w 54 -53 -39 0.791761
w 55 54 40 0
w 55 54 -40 0
w 55 -54 40 0
w 55 -54 -40 1
w 56 55 41 0.0814514
w 56 55 -41 0.735095
w 56 -55 41 0.447576
w 56 -55 -41 0.267477
w 57 56 42 0.099157
w 57 56 -42 0.157647
w 57 -56 42 0.41265
w 57 -56 -42 0.653461
w 58 57 43 1
w 58 57 -43 1
w 58 -57 43 0
w 58 -57 -43 1
w 59 58 44 1
w 59 58 -44 0
w 59 -58 44 0
w 59 -58 -44 0
w 60 59 45 0.96407
w 60 59 -45 0.704054
w 60 -59 45 0.6498
w 60 -59 -45 0.129749
w 61 46 0
w 61 -46 1
w 62 61 47 1
w 62 61 -47 0
w 62 -61 47 1
w 62 -61 -47 0
w 63 62 48 1
w 63 62 -48 1
w 63 -62 48 0
w 63 -62 -48 0
w 64 63 49 0
w 64 63 -49 1
w 64 -63 49 0
w 64 -63 -49 1
w 65 64 50 0.932909
w 65 64 -50 0.25558
w 65 -64 50 0.575607
w 65 -64 -50 0.306434
w 66 65 51 0
w 66 65 -51 0
w 66 -65 51 1
w 66 -65 -51 1
w 67 66 52 0
w 67 66 -52 0
w 67 -66 52 0
w 67 -66 -52 1
w 68 67 53 0
w 68 67 -53 1
w 68 -67 53 1
w 68 -67 -53 1
w 69 68 54 0.277279
w 69 68 -54 0.921264
w 69 -68 54 0.915222
w 69 -68 -54 0.656499
w 70 69 55 0.155661
w 70 69 -55 0.193365
w 70 -69 55 0.420723
w 70 -69 -55 0.0495611
w 71 70 56 1
w 71 70 -56 0
w 71 -70 56 0
w 71 -70 -56 1
w 72 71 57 0
w 72 71 -57 1
w 72 -71 57 1
w 72 -71 -57 1
w 73 72 58 0.975635
w 73 72 -58 0.307136
w 73 -72 58 0.800413
w 73 -72 -58 0.430785
w 74 73 59 0
w 74 73 -59 1
w 74 -73 59 0
w 74 -73 -59 1
w 75 74 60 0.334326
w 75 74 -60 0.378475
w 75 -74 60 0.637351
w 75 -74 -60 0.249548
w 76 61 0
w 76 -61 1
w 77 76 62 1
w 77 76 -62 0
w 77 -76 62 1
w 77 -76 -62 1
w 78 77 63 1
w 78 77 -63 1
w 78 -77 63 0
w 78 -77 -63 0
w 79 78 64 0
w 79 78 -64 1
w 79 -78 64 1
w 79 -78 -64 0
w 80 79 65 1
w 80 79 -65 1
w 80 -79 65 1
w 80 -79 -65 0
w 81 80 66 0
w 81 80 -66 0
w 81 -80 66 1
w 81 -80 -66 0
w 82 81 67 0.542307
w 82 81 -67 0.361832
w 82 -81 67 0.816159
w 82 -81 -67 0.57728
w 83 82 68 0.221367
w 83 82 -68 0.805619
w 83 -82 68 0.986594
w 83 -82 -68 0.676137
w 84 83 69 1
w 84 83 -69 1
w 84 -83 69 1
w 84 -83 -69 0
w 85 84 70 0.943514
w 85 84 -70 0.788353
w 85 -84 70 0.215897
w 85 -84 -70 0.828122
w 86 85 71 0
w 86 85 -71 1
w 86 -85 71 0
w 86 -85 -71 1
w 87 86 72 0.30453
w 87 86 -72 0.3591
w 87 -86 72 0.924046
w 87 -86 -72 0.468362
w 88 87 73 1
w 88 87 -73 0
w 88 -87 73 1
w 88 -87 -73 1
w 89 88 74 0.409263
w 89 88 -74 0.528182
w 89 -88 74 0.393568
w 89 -88 -74 0.395858
w 90 89 75 0
w 90 89 -75 0
w 90 -89 75 0
w 90 -89 -75 1
w 91 76 0.157216
w 91 -76 0.116867
w 92 91 77 0.373113
w 92 91 -77 0.944988
w 92 -91 77 0.803838
w 92 -91 -77 0.941023
w 93 92 78 0.0457322
w 93 92 -78 0.291729
w 93 -92 78 0.656614
w 93 -92 -78 0.350262
w 94 93 79 0.58066
w 94 93 -79 0.818624
w 94 -93 79 0.734409
w 94 -93 -79 0.0713161
w 95 94 80 0.179821
w 95 94 -80 0.378131
w 95 -94 80 0.417242
w 95 -94 -80 0.589084
w 96 95 81 0.810811
w 96 95 -81 0.984942
w 96 -95 81 0.110632
w 96 -95 -81 0.295324
w 97 96 82 0.428328
w 97 96 -82 0.468676
w 97 -96 82 0.512626
w 97 -96 -82 0.585544
w 98 97 83 0.201547
w 98 97 -83 0.958657
w 98 -97 83 0.530532
w 98 -97 -83 0.00538514
w 99 98 84 0.495384
w 99 98 -84 0.0511173
w 99 -98 84 0.191409
w 99 -98 -84 0.151998
w 100 99 85 1
w 100 99 -85 0
w 100 -99 85 0
w 100 -99 -85 0
w 101 100 86 0
w 101 100 -86 1
w 101 -100 86 0
w 101 -100 -86 0
w 102 101 87 0
w 102 101 -87 1
w 102 -101 87 1
w 102 -101 -87 1
w 103 102 88 0.0413507
w 103 102 -88 0.455179
w 103 -102 88 0.212924
w 103 -102 -88 0.626894
w 104 103 89 0.171581
w 104 103 -89 0.157425
w 104 -103 89 0.662111
w 104 -103 -89 0.0712614
w 105 104 90 0.713228
w 105 104 -90 0.262671
w 105 -104 90 0.804808
w 105 -104 -90 0.114608
w 106 91 0
w 106 -91 1
w 107 106 92 0
w 107 106 -92 0
w 107 -106 92 1
w 107 -106 -92 0
w 108 107 93 0.783577
w 108 107 -93 0.611965
w 108 -107 93 0.1278
w 108 -107 -93 0.114072
w 109 108 94 0.700474
w 109 108 -94 0.0566248
w 109 -108 94 0.438396
w 109 -108 -94 0.741825
w 110 109 95 0.651319
w 110 109 -95 0.368719
w 110 -109 95 0.16853
w 110 -109 -95 0.822901
w 111 110 96 0.830641
w 111 110 -96 0.894162
w 111 -110 96 0.178954
w 111 -110 -96 0.543869
w 112 111 97 0
w 112 111 -97 1
w 112 -111 97 0
w 112 -111 -97 0
w 113 112 98 0.943298
w 113 112 -98 0.862669
w 113 -112 98 0.376999
w 113 -112 -98 0.381322
w 114 113 99 0
w 114 113 -99 0
w 114 -113 99 0
w 114 -113 -99 1
w 115 114 100 1
w 115 114 -100 1
w 115 -114 100 1
w 115 -114 -100 0
w 116 115 101 0.8474
w 116 115 -101 0.898912
w 116 -115 101 0.166267
w 116 -115 -101 0.0159293
w 117 116 102 0.692411
w 117 116 -102 0.84657
w 117 -116 102 0.615974
w 117 -116 -102 0.871364
w 118 117 103 0
w 118 117 -103 0
w 118 -117 103 0
w 118 -117 -103 1
w 119 118 104 1
w 119 118 -104 0
w 119 -118 104 0
w 119 -118 -104 1
w 120 119 105 1
w 120 119 -105 1
w 120 -119 105 1
w 120 -119 -105 0
w 121 106 0
w 121 -106 1
w 122 121 107 1
w 122 121 -107 1
w 122 -121 107 0
w 122 -121 -107 1
w 123 122 108 0.0212393
w 123 122 -108 0.00196473
w 123 -122 108 0.300933
w 123 -122 -108 0.71365
w 124 123 109 0.916907
w 124 123 -109 0.585014
w 124 -123 109 0.238974
w 124 -123 -109 0.689714
w 125 124 110 0
w 125 124 -110 0
w 125 -124 110 1
w 125 -124 -110 0
w 126 125 111 0.0555186
w 126 125 -111 0.748901
w 126 -125 111 0.0612788
w 126 -125 -111 0.680758
w 127 126 112 1
w 127 126 -112 1
w 127 -126 112 0
w 127 -126 -112 0
w 128 127 113 0.454482
w 128 127 -113 0.527023
w 128 -127 113 0.417003
w 128 -127 -113 0.309455
w 129 128 114 0.996123
w 129 128 -114 0.330694
w 129 -128 114 0.515023
w 129 -128 -114 0.297056
w 130 129 115 0
w 130 129 -115 1
w 130 -129 115 0
w 130 -129 -115 0
w 131 130 116 0.0694987
w 131 130 -116 0.890422
w 131 -130 116 0.62794
w 131 -130 -116 0.885994
w 132 131 117 1
w 132 131 -117 1
w 132 -131 117 0
w 132 -131 -117 1
w 133 132 118 1
w 133 132 -118 1
w 133 -132 118 1
w 133 -132 -118 0
w 134 133 119 0
w 134 133 -119 1
w 134 -133 119 0
w 134 -133 -119 0
w 135 134 120 0
w 135 134 -120 1
w 135 -134 120 0
w 135 -134 -120 1
w 136 121 1
w 136 -121 0
w 137 136 122 0.886256
w 137 136 -122 0.491062
w 137 -136 122 0.599462
w 137 -136 -122 0.776678
w 138 137 123 0
w 138 137 -123 0
w 138 -137 123 0
w 138 -137 -123 1
w 139 138 124 0.840379
w 139 138 -124 0.0492378
w 139 -138 124 0.33079
w 139 -138 -124 0.817054
w 140 139 125 0.0924209
w 140 139 -125 0.182116
w 140 -139 125 0.638927
w 140 -139 -125 0.308534
w 141 140 126 1
w 141 140 -126 0
w 141 -140 126 0
w 141 -140 -126 0
w 142 141 127 0
w 142 141 -127 1
w 142 -141 127 1
w 142 -141 -127 1
w 143 142 128 0
w 143 142 -128 0
w 143 -142 128 0
w 143 -142 -128 1
w 144 143 129 0
w 144 143 -129 1
w 144 -143 129 1
w 144 -143 -129 1
w 145 144 130 0.640171
w 145 144 -130 0.472893
w 145 -144 130 0.65774
w 145 -144 -130 0.732592
w 146 145 131 0.296667
w 146 145 -131 0.0411263
w 146 -145 131 0.729211
w 146 -145 -131 0.0158379
w 147 146 132 0.208556
w 147 146 -132 0.811376
w 147 -146 132 0.565591
w 147 -146 -132 0.608068
w 148 147 133 0.156559
w 148 147 -133 0.291304
w 148 -147 133 0.736683
w 148 -147 -133 0.27749
w 149 148 134 0.984091
w 149 148 -134 0.997884
w 149 -148 134 0.206965
w 149 -148 -134 0.350501
w 150 149 135 1
w 150 149 -135 1
w 150 -149 135 0
w 150 -149 -135 0
w 151 136 0.518605
w 151 -136 0.499684
w 152 151 137 0
w 152 151 -137 0
w 152 -151 137 1
w 152 -151 -137 0
w 153 152 138 0
w 153 152 -138 0
w 153 -152 138 1
w 153 -152 -138 0
w 154 153 139 0
w 154 153 -139 0
w 154 -153 139 0
w 154 -153 -139 1
w 155 154 140 0.0172458
w 155 154 -140 0.148271
w 155 -154 140 0.647639
w 155 -154 -140 0.001337
w 156 155 141 1
w 156 155 -141 1
w 156 -155 141 0
w 156 -155 -141 0
w 157 156 142 0.186438
w 157 156 -142 0.264249
w 157 -156 142 0.339601
w 157 -156 -142 0.705043
w 158 157 143 0.634295
w 158 157 -143 0.881389
w 158 -157 143 0.99621
w 158 -157 -143 0.583999
w 159 158 144 0
w 159 158 -144 1
w 159 -158 144 1
w 159 -158 -144 1
w 160 159 145 0
w 160 159 -145 1
w 160 -159 145 0
w 160 -159 -145 0
w 161 160 146 0
w 161 160 -146 0
w 161 -160 146 0
w 161 -160 -146 1
w 162 161 147 1
w 162 161 -147 0
w 162 -161 147 0
w 162 -161 -147 0
w 163 162 148 1
w 163 162 -148 0
w 163 -162 148 0
w 163 -162 -148 1
w 164 163 149 0
w 164 163 -149 1
w 164 -163 149 1
w 164 -163 -149 0
w 165 164 150 0.633752
w 165 164 -150 0.133068
w 165 -164 150 0.618082
w 165 -164 -150 0.0519958
w 166 151 0
w 166 -151 1
w 167 166 152 1
w 167 166 -152 0
w 167 -166 152 0
w 167 -166 -152 0
w 168 167 153 1
w 168 167 -153 1
w 168 -167 153 0
w 168 -167 -153 1
w 169 168 154 0.284456
w 169 168 -154 0.717309
w 169 -168 154 0.176229
w 169 -168 -154 0.118454
w 170 169 155 0
w 170 169 -155 0
w 170 -169 155 1
w 170 -169 -155 0
w 171 170 156 0
w 171 170 -156 0
w 171 -170 156 0
w 171 -170 -156 1
w 172 171 157 0
w 172 171 -157 1
w 172 -171 157 1
w 172 -171 -157 0
w 173 172 158 0.330298
w 173 172 -158 0.417997
w 173 -172 158 0.111289
w 173 -172 -158 0.692443
w 174 173 159 1
w 174 173 -159 0
w 174 -173 159 1
w 174 -173 -159 1
w 175 174 160 0.978358
w 175 174 -160 0.371865
w 175 -174 160 0.229866
w 175 -174 -160 0.154588
w 176 175 161 1
w 176 175 -161 0
w 176 -175 161 1
w 176 -175 -161 1
w 177 176 162 1
w 177 176 -162 1
w 177 -176 162 1
w 177 -176 -162 0
w 178 177 163 0.198792
w 178 177 -163 0.549334
w 178 -177 163 0.720022
w 178 -177 -163 0.599712
w 179 178 164 0.643604
w 179 178 -164 0.93001
w 179 -178 164 0.199729
w 179 -178 -164 0.754893
w 180 179 165 0.244611
w 180 179 -165 0.205406
w 180 -179 165 0.757447
w 180 -179 -165 0.359001
w 181 166 0
w 181 -166 1
w 182 181 167 0
w 182 181 -167 0
w 182 -181 167 0
w 182 -181 -167 1
w 183 182 168 0
w 183 182 -168 0
w 183 -182 168 1
w 183 -182 -168 1
w 184 183 169 0.585222
w 184 183 -169 0.652872
w 184 -183 169 0.607047
w 184 -183 -169 0.566123
w 185 184 170 0.156381
w 185 184 -170 0.286145
w 185 -184 170 0.451376
w 185 -184 -170 0.938112
w 186 185 171 0.381386
w 186 185 -171 0.137841
w 186 -185 171 0.684642
w 186 -185 -171 0.00383939
w 187 186 172 1
w 187 186 -172 0
w 187 -186 172 1
w 187 -186 -172 0
w 188 187 173 1
w 188 187 -173 0
w 188 -187 173 1
w 188 -187 -173 1
w 189 188 174 1
w 189 188 -174 1
w 189 -188 174 1
w 189 -188 -174 0
w 190 189 175 0.833903
w 190 189 -175 0.458867
w 190 -189 175 0.269801
w 190 -189 -175 0.440949
w 191 190 176 0
w 191 190 -176 1
w 191 -190 176 0
w 191 -190 -176 0
w 192 191 177 0
w 192 191 -177 1
w 192 -191 177 1
w 192 -191 -177 0
w 193 192 178 1
w 193 192 -178 0
w 193 -192 178 1
w 193 -192 -178 1
w 194 193 179 0.875998
w 194 193 -179 0.845978
w 194 -193 179 0.281804
w 194 -193 -179 0.446755
w 195 194 180 0.864004
w 195 194 -180 0.492137
w 195 -194 180 0.153869
w 195 -194 -180 0.73765
w 196 181 1
w 196 -181 0
w 197 196 182 0
w 197 196 -182 0
w 197 -196 182 1
w 197 -196 -182 0
w 198 197 183 1
w 198 197 -183 0
w 198 -197 183 0
w 198 -197 -183 1
w 199 198 184 1
w 199 198 -184 0
w 199 -198 184 0
w 199 -198 -184 1
w 200 199 185 0.704818
w 200 199 -185 0.0876979
w 200 -199 185 0.513063
w 200 -199 -185 0.455461
w 201 200 186 0.359041
w 201 200 -186 0.737264
w 201 -200 186 0.410451
w 201 -200 -186 0.207558
w 202 201 187 0.902588
w 202 201 -187 0.361427
w 202 -201 187 0.338919
w 202 -201 -187 0.0116554
w 203 202 188 1
w 203 202 -188 1
w 203 -202 188 0
w 203 -202 -188 1
w 204 203 189 0.803973
w 204 203 -189 0.289586
w 204 -203 189 0.964029
w 204 -203 -189 0.365466
w 205 204 190 1
w 205 204 -190 0
w 205 -204 190 0
w 205 -204 -190 1
w 206 205 191 0.276795
w 206 205 -191 0.681711
w 206 -205 191 0.978452
w 206 -205 -191 0.789858
w 207 206 192 0
w 207 206 -192 1
w 207 -206 192 0
w 207 -206 -192 1
w 208 207 193 1
w 208 207 -193 0
w 208 -207 193 0
w 208 -207 -193 1
w 209 208 194 0
w 209 208 -194 1
w 209 -208 194 1
w 209 -208 -194 0
w 210 209 195 1
w 210 209 -195 1
w 210 -209 195 0
w 210 -209 -195 0
w 211 196 0
w 211 -196 1
w 212 211 197 0.614687
w 212 211 -197 0.221869
w 212 -211 197 0.480573
w 212 -211 -197 0.505442
w 213 212 198 1
w 213 212 -198 0
w 213 -212 198 1
w 213 -212 -198 1
w 214 213 199 0
w 214 213 -199 0
w 214 -213 199 0
w 214 -213 -199 1
w 215 214 200 0
w 215 214 -200 1
w 215 -214 200 1
w 215 -214 -200 0
w 216 215 201 0.958038
w 216 215 -201 0.423851
w 216 -215 201 0.921279
w 216 -215 -201 0.506261
w 217 216 202 0
w 217 216 -202 1
w 217 -216 202 0
w 217 -216 -202 0
w 218 217 203 0.999438
w 218 217 -203 0.0027648
w 218 -217 203 0.207403
w 218 -217 -203 0.498103
w 219 218 204 1
w 219 218 -204 1
w 219 -218 204 0
w 219 -218 -204 1
w 220 219 205 0
w 220 219 -205 1
w 220 -219 205 0
w 220 -219 -205 1
w 221 220 206 0.529686
w 221 220 -206 0.752208
w 221 -220 206 0.230481
w 221 -220 -206 0.108533
w 222 221 207 0.188519
w 222 221 -207 0.532384
w 222 -221 207 0.487765
w 222 -221 -207 0.69478
w 223 222 208 0.805632
w 223 222 -208 0.713293
w 223 -222 208 0.692487
w 223 -222 -208 0.583201
w 224 223 209 0
w 224 223 -209 0
w 224 -223 209 0
w 224 -223 -209 1
w 225 224 210 1
w 225 224 -210 0
w 225 -224 210 1
w 225 -224 -210 1